NAME : ct_5_n_3_k10_t_80
COMMENT : (ct_5_n_3_k10_t_80, Min no of trucks: 3, Optimal value: 61.771341403296645, Split: Yes)
TYPE : SDVRP
DIMENSION : 6
EDGE_WEIGHT_TYPE : EUC_2D
CAPACITY : 10
NODE_COORD_SECTION
1 0 0
2 2 4
3 8 1
4 -1 -10
5 -5 -6
6 -7 5
DEMAND_SECTION
1 0
2 5.2
3 6.5
4 4.0
5 3.5
6 4.8
DEPOT_SECTION
 1
EOF